SAT
-1 -100 99 -53 -68 8 -98 40 87 3 52 -72 33 55 71 69 -84 24 60 -92 95 50 -26 -5 59 28 -81 -96 27 -6 23 67 -10 56 88 -90 65 45 -17 -12 9 -38 -70 -15 2 57 85 -29 22 79 -44 -82 75 -20 -34 -61 30 -97 76 43 83 -78 -47 48 -42 -91 -14 -62 -35 -94 -13 -58 86 46 -25 89 36 -18 -74 -63 -54 11 -4 41 -31 51 -19 77 -21 -64 -16 32 37 -39 80 -7 -66 93 -49 -73 0
